U_400_2.txt

VEHICLE     CAPACITY  LOCATIONS  CUSTOMER  OPTIONS  PRIORITIES  NUMTYPS
10		150		481		400		800		3		4

CUSTOMER  DEMAND
0	 13
1	 19
2	 19
3	 20
4	 12
5	 19
6	 10
7	 14
8	 14
9	 15
10	 13
11	 16
12	 20
13	 13
14	 10
15	 20
16	 13
17	 11
18	 11
19	 18
20	 13
21	 12
22	 20
23	 19
24	 17
25	 17
26	 14
27	 10
28	 19
29	 11
30	 16
31	 18
32	 13
33	 15
34	 12
35	 14
36	 17
37	 15
38	 13
39	 17
40	 19
41	 15
42	 15
43	 11
44	 12
45	 12
46	 17
47	 15
48	 18
49	 14
50	 10
51	 14
52	 13
53	 17
54	 12
55	 16
56	 15
57	 13
58	 17
59	 19
60	 11
61	 15
62	 10
63	 17
64	 16
65	 18
66	 11
67	 18
68	 10
69	 18
70	 12
71	 19
72	 14
73	 18
74	 18
75	 20
76	 19
77	 13
78	 16
79	 11
80	 11
81	 10
82	 13
83	 20
84	 10
85	 10
86	 17
87	 17
88	 19
89	 14
90	 12
91	 19
92	 14
93	 16
94	 15
95	 10
96	 11
97	 18
98	 13
99	 13
100	 14
101	 14
102	 19
103	 16
104	 12
105	 20
106	 11
107	 14
108	 16
109	 12
110	 19
111	 19
112	 15
113	 13
114	 16
115	 12
116	 11
117	 15
118	 12
119	 16
120	 17
121	 13
122	 14
123	 18
124	 13
125	 19
126	 20
127	 18
128	 15
129	 19
130	 18
131	 15
132	 17
133	 14
134	 12
135	 12
136	 16
137	 20
138	 13
139	 18
140	 19
141	 11
142	 14
143	 12
144	 18
145	 20
146	 14
147	 16
148	 12
149	 16
150	 10
151	 14
152	 12
153	 15
154	 15
155	 20
156	 17
157	 15
158	 14
159	 10
160	 13
161	 11
162	 10
163	 19
164	 14
165	 18
166	 14
167	 12
168	 16
169	 17
170	 19
171	 15
172	 13
173	 16
174	 16
175	 13
176	 11
177	 20
178	 12
179	 14
180	 12
181	 14
182	 13
183	 15
184	 16
185	 17
186	 15
187	 19
188	 20
189	 15
190	 18
191	 14
192	 14
193	 17
194	 20
195	 13
196	 19
197	 19
198	 17
199	 15
200	 18
201	 15
202	 14
203	 18
204	 14
205	 16
206	 10
207	 18
208	 20
209	 19
210	 15
211	 18
212	 15
213	 20
214	 12
215	 19
216	 18
217	 14
218	 20
219	 10
220	 19
221	 16
222	 15
223	 11
224	 19
225	 13
226	 11
227	 15
228	 12
229	 20
230	 12
231	 13
232	 20
233	 14
234	 20
235	 14
236	 20
237	 14
238	 13
239	 17
240	 19
241	 10
242	 20
243	 20
244	 16
245	 12
246	 19
247	 12
248	 18
249	 16
250	 12
251	 13
252	 17
253	 17
254	 12
255	 15
256	 15
257	 20
258	 19
259	 10
260	 17
261	 16
262	 15
263	 13
264	 20
265	 14
266	 19
267	 16
268	 14
269	 20
270	 10
271	 15
272	 16
273	 13
274	 18
275	 15
276	 20
277	 19
278	 20
279	 14
280	 19
281	 11
282	 17
283	 12
284	 13
285	 17
286	 19
287	 17
288	 14
289	 16
290	 15
291	 14
292	 10
293	 13
294	 17
295	 14
296	 15
297	 16
298	 11
299	 10
300	 12
301	 10
302	 13
303	 13
304	 18
305	 10
306	 17
307	 15
308	 14
309	 16
310	 16
311	 19
312	 15
313	 13
314	 15
315	 13
316	 16
317	 12
318	 17
319	 16
320	 20
321	 12
322	 14
323	 13
324	 18
325	 20
326	 11
327	 13
328	 16
329	 18
330	 19
331	 15
332	 14
333	 14
334	 19
335	 10
336	 16
337	 13
338	 18
339	 20
340	 10
341	 17
342	 10
343	 19
344	 16
345	 13
346	 20
347	 17
348	 16
349	 17
350	 12
351	 11
352	 10
353	 14
354	 12
355	 18
356	 17
357	 20
358	 14
359	 18
360	 15
361	 13
362	 18
363	 15
364	 15
365	 19
366	 18
367	 17
368	 17
369	 11
370	 13
371	 20
372	 16
373	 20
374	 13
375	 18
376	 12
377	 20
378	 11
379	 20
380	 13
381	 12
382	 19
383	 19
384	 12
385	 15
386	 18
387	 20
388	 19
389	 20
390	 12
391	 20
392	 17
393	 16
394	 16
395	 11
396	 10
397	 10
398	 16
399	 18

LOCATION  XCOORD  YCOORD  CAP  READY  DUE  TYP  SERVICETIME
0		49		3		-1		0		720	 0		0
1		29		31		-1		360		720		 2		6
2		50		12		-1		37		157		 2		6
3		38		2		-1		376		496		 2		6
4		23		28		-1		360		720		 2		6
5		36		9		-1		200		440		 2		6
6		42		37		-1		215		335		 2		6
7		6		20		-1		0		360		 2		6
8		2		28		-1		0		360		 2		6
9		30		2		-1		171		411		 2		6
10		47		28		-1		105		225		 2		6
11		15		37		-1		498		618		 2		6
12		4		23		-1		111		231		 2		6
13		42		38		-1		360		720		 2		6
14		12		37		-1		124		244		 2		6
15		10		11		-1		28		148		 2		6
16		11		34		-1		392		632		 2		6
17		40		45		-1		360		720		 2		6
18		50		23		-1		508		628		 2		6
19		16		4		-1		587		707		 2		6
20		38		31		-1		551		671		 2		6
21		11		46		-1		383		503		 2		6
22		14		8		-1		0		360		 2		6
23		36		27		-1		394		514		 2		6
24		21		19		-1		360		720		 2		6
25		44		28		-1		52		172		 2		6
26		2		42		-1		222		462		 2		6
27		39		18		-1		0		360		 2		6
28		46		5		-1		0		360		 2		6
29		49		29		-1		556		676		 2		6
30		34		22		-1		341		581		 2		6
31		43		10		-1		125		365		 2		6
32		34		34		-1		360		720		 2		6
33		9		31		-1		0		360		 2		6
34		43		49		-1		378		618		 2		6
35		44		21		-1		385		505		 2		6
36		6		21		-1		0		360		 2		6
37		13		11		-1		360		720		 2		6
38		16		9		-1		424		544		 2		6
39		6		24		-1		95		335		 2		6
40		44		34		-1		397		517		 2		6
41		20		12		-1		203		443		 2		6
42		41		34		-1		0		360		 2		6
43		43		34		-1		58		298		 2		6
44		21		14		-1		360		720		 2		6
45		5		20		-1		0		360		 2		6
46		21		36		-1		435		555		 2		6
47		16		28		-1		360		720		 2		6
48		15		9		-1		0		360		 2		6
49		10		20		-1		176		296		 2		6
50		50		6		-1		68		188		 2		6
51		13		43		-1		435		555		 2		6
52		43		47		-1		405		645		 2		6
53		34		43		-1		360		720		 2		6
54		36		31		-1		196		316		 2		6
55		50		35		-1		0		360		 2		6
56		27		22		-1		360		720		 2		6
57		6		48		-1		136		256		 2		6
58		41		32		-1		360		720		 2		6
59		42		46		-1		0		360		 2		6
60		28		30		-1		518		638		 2		6
61		35		36		-1		0		360		 2		6
62		46		33		-1		365		485		 2		6
63		2		5		-1		29		269		 2		6
64		14		3		-1		174		414		 2		6
65		6		23		-1		0		360		 2		6
66		6		49		-1		420		540		 2		6
67		48		33		-1		54		174		 2		6
68		29		48		-1		53		173		 2		6
69		21		35		-1		360		720		 2		6
70		15		38		-1		511		631		 2		6
71		23		9		-1		0		360		 2		6
72		48		42		-1		82		322		 2		6
73		44		29		-1		571		691		 2		6
74		34		34		-1		508		628		 2		6
75		29		22		-1		0		360		 2		6
76		50		10		-1		71		311		 2		6
77		47		1		-1		360		720		 2		6
78		43		39		-1		112		352		 2		6
79		23		45		-1		381		621		 2		6
80		22		29		-1		465		585		 2		6
81		11		4		-1		484		604		 2		6
82		21		10		-1		147		267		 2		6
83		40		5		-1		0		360		 2		6
84		42		42		-1		442		562		 2		6
85		26		15		-1		480		600		 2		6
86		19		45		-1		0		360		 2		6
87		10		20		-1		388		628		 2		6
88		45		9		-1		360		720		 2		6
89		24		32		-1		199		319		 2		6
90		24		11		-1		360		720		 2		6
91		8		22		-1		512		632		 2		6
92		32		13		-1		117		237		 2		6
93		44		29		-1		13		133		 2		6
94		47		8		-1		127		367		 2		6
95		6		8		-1		33		273		 2		6
96		13		11		-1		0		360		 2		6
97		50		2		-1		361		481		 2		6
98		8		23		-1		365		605		 2		6
99		18		44		-1		475		595		 2		6
100		12		42		-1		0		360		 2		6
101		24		32		-1		0		360		 2		6
102		3		30		-1		271		511		 2		6
103		35		44		-1		360		720		 2		6
104		23		2		-1		160		280		 2		6
105		1		13		-1		553		673		 2		6
106		28		42		-1		99		219		 2		6
107		22		36		-1		59		179		 2		6
108		16		50		-1		360		720		 2		6
109		2		29		-1		0		360		 2		6
110		21		31		-1		546		666		 2		6
111		47		29		-1		9		129		 2		6
112		17		12		-1		40		160		 2		6
113		1		3		-1		360		720		 2		6
114		3		17		-1		473		593		 2		6
115		25		38		-1		547		667		 2		6
116		13		12		-1		443		563		 2		6
117		41		48		-1		241		481		 2		6
118		42		9		-1		0		360		 2		6
119		50		49		-1		594		714		 2		6
120		37		31		-1		360		720		 2		6
121		47		19		-1		519		639		 2		6
122		32		47		-1		364		484		 2		6
123		32		33		-1		377		497		 2		6
124		30		36		-1		360		720		 2		6
125		22		25		-1		591		711		 2		6
126		46		11		-1		0		360		 2		6
127		36		38		-1		192		312		 2		6
128		18		20		-1		50		290		 2		6
129		28		31		-1		406		646		 2		6
130		5		37		-1		130		250		 2		6
131		33		12		-1		6		246		 2		6
132		50		4		-1		0		360		 2		6
133		26		24		-1		360		720		 2		6
134		43		9		-1		0		360		 2		6
135		30		43		-1		360		720		 2		6
136		46		16		-1		360		720		 2		6
137		41		30		-1		359		599		 2		6
138		12		19		-1		360		720		 2		6
139		40		33		-1		125		245		 2		6
140		22		4		-1		6		246		 2		6
141		47		40		-1		509		629		 2		6
142		23		10		-1		386		626		 2		6
143		14		27		-1		593		713		 2		6
144		18		17		-1		0		360		 2		6
145		22		4		-1		360		720		 2		6
146		33		34		-1		140		260		 2		6
147		14		43		-1		49		169		 2		6
148		23		34		-1		68		188		 2		6
149		32		3		-1		376		616		 2		6
150		40		45		-1		141		261		 2		6
151		5		6		-1		397		517		 2		6
152		14		5		-1		191		311		 2		6
153		7		47		-1		360		720		 2		6
154		44		4		-1		600		720		 2		6
155		34		19		-1		425		665		 2		6
156		42		42		-1		360		720		 2		6
157		2		13		-1		398		518		 2		6
158		39		33		-1		426		546		 2		6
159		12		23		-1		0		360		 2		6
160		7		43		-1		505		625		 2		6
161		19		30		-1		360		720		 2		6
162		24		10		-1		0		360		 2		6
163		32		43		-1		360		720		 2		6
164		13		20		-1		0		360		 2		6
165		38		1		-1		44		164		 2		6
166		44		19		-1		557		677		 2		6
167		32		16		-1		360		720		 2		6
168		24		38		-1		0		360		 2		6
169		28		24		-1		0		360		 2		6
170		28		22		-1		239		479		 2		6
171		22		50		-1		360		720		 2		6
172		7		41		-1		451		571		 2		6
173		8		45		-1		82		202		 2		6
174		8		17		-1		0		360		 2		6
175		41		24		-1		0		360		 2		6
176		38		34		-1		360		720		 2		6
177		12		9		-1		360		720		 2		6
178		5		9		-1		360		720		 2		6
179		33		10		-1		82		322		 2		6
180		6		6		-1		360		720		 2		6
181		13		21		-1		392		632		 2		6
182		50		4		-1		196		436		 2		6
183		4		48		-1		129		369		 2		6
184		16		15		-1		90		210		 2		6
185		50		37		-1		0		360		 2		6
186		31		37		-1		0		360		 2		6
187		16		25		-1		0		360		 2		6
188		37		49		-1		191		431		 2		6
189		4		1		-1		423		543		 2		6
190		11		25		-1		240		480		 2		6
191		10		6		-1		0		360		 2		6
192		35		37		-1		271		511		 2		6
193		37		36		-1		471		711		 2		6
194		18		23		-1		150		390		 2		6
195		37		2		-1		360		720		 2		6
196		29		8		-1		438		558		 2		6
197		3		29		-1		431		551		 2		6
198		36		14		-1		98		218		 2		6
199		37		28		-1		360		720		 2		6
200		27		1		-1		0		360		 2		6
201		46		38		-1		360		720		 2		6
202		33		15		-1		344		584		 2		6
203		30		16		-1		360		720		 2		6
204		18		25		-1		0		360		 2		6
205		19		28		-1		183		423		 2		6
206		27		39		-1		529		649		 2		6
207		43		35		-1		0		360		 2		6
208		48		41		-1		0		360		 2		6
209		3		29		-1		306		546		 2		6
210		44		28		-1		449		569		 2		6
211		27		10		-1		0		360		 2		6
212		30		36		-1		251		491		 2		6
213		41		3		-1		360		720		 2		6
214		44		30		-1		471		591		 2		6
215		47		13		-1		0		360		 2		6
216		48		2		-1		372		492		 2		6
217		11		33		-1		0		360		 2		6
218		38		41		-1		360		720		 2		6
219		1		30		-1		360		720		 2		6
220		42		34		-1		0		360		 2		6
221		40		35		-1		0		360		 2		6
222		32		4		-1		191		431		 2		6
223		18		45		-1		508		628		 2		6
224		45		31		-1		544		664		 2		6
225		41		9		-1		206		326		 2		6
226		49		10		-1		360		720		 2		6
227		43		46		-1		360		720		 2		6
228		45		19		-1		0		360		 2		6
229		23		49		-1		420		540		 2		6
230		49		47		-1		136		256		 2		6
231		17		30		-1		360		720		 2		6
232		8		43		-1		407		527		 2		6
233		13		24		-1		575		695		 2		6
234		46		5		-1		52		172		 2		6
235		14		19		-1		511		631		 2		6
236		27		37		-1		360		720		 2		6
237		25		25		-1		360		720		 2		6
238		41		38		-1		555		675		 2		6
239		50		35		-1		0		360		 2		6
240		11		2		-1		130		370		 2		6
241		2		38		-1		578		698		 2		6
242		10		8		-1		0		360		 2		6
243		45		9		-1		397		637		 2		6
244		48		24		-1		242		482		 2		6
245		12		6		-1		209		329		 2		6
246		49		20		-1		360		720		 2		6
247		12		29		-1		360		720		 2		6
248		23		25		-1		360		720		 2		6
249		28		37		-1		412		532		 2		6
250		48		14		-1		360		720		 2		6
251		21		13		-1		15		255		 2		6
252		26		16		-1		0		360		 2		6
253		32		28		-1		360		720		 2		6
254		10		27		-1		0		360		 2		6
255		21		13		-1		310		550		 2		6
256		24		10		-1		554		674		 2		6
257		40		24		-1		360		720		 2		6
258		39		46		-1		360		720		 2		6
259		43		34		-1		475		595		 2		6
260		17		46		-1		0		360		 2		6
261		17		35		-1		355		595		 2		6
262		32		5		-1		382		502		 2		6
263		2		47		-1		518		638		 2		6
264		2		6		-1		558		678		 2		6
265		7		19		-1		0		360		 2		6
266		32		49		-1		80		200		 2		6
267		21		36		-1		205		445		 2		6
268		31		1		-1		360		720		 2		6
269		35		5		-1		360		720		 2		6
270		16		31		-1		360		720		 2		6
271		43		28		-1		447		567		 2		6
272		26		22		-1		360		720		 2		6
273		43		25		-1		499		619		 2		6
274		4		8		-1		100		340		 2		6
275		44		17		-1		360		720		 2		6
276		35		12		-1		0		360		 2		6
277		29		7		-1		59		179		 2		6
278		10		21		-1		459		579		 2		6
279		18		8		-1		149		269		 2		6
280		5		13		-1		54		174		 2		6
281		22		22		-1		181		301		 2		6
282		45		36		-1		360		720		 2		6
283		31		43		-1		360		720		 2		6
284		48		11		-1		360		720		 2		6
285		35		41		-1		126		366		 2		6
286		22		34		-1		285		525		 2		6
287		7		23		-1		0		360		 2		6
288		4		21		-1		0		360		 2		6
289		47		35		-1		0		360		 2		6
290		34		13		-1		0		360		 2		6
291		20		19		-1		0		360		 2		6
292		10		28		-1		0		360		 2		6
293		34		44		-1		500		620		 2		6
294		14		41		-1		360		720		 2		6
295		49		8		-1		184		304		 2		6
296		12		8		-1		360		720		 2		6
297		36		29		-1		17		137		 2		6
298		36		19		-1		482		602		 2		6
299		47		12		-1		149		269		 2		6
300		18		32		-1		0		360		 2		6
301		44		14		-1		58		298		 2		6
302		18		46		-1		465		585		 2		6
303		29		38		-1		573		693		 2		6
304		18		34		-1		360		720		 2		6
305		2		43		-1		364		484		 2		6
306		9		39		-1		143		263		 2		6
307		49		35		-1		179		299		 2		6
308		38		13		-1		503		623		 2		6
309		19		50		-1		0		360		 2		6
310		25		10		-1		360		720		 2		6
311		29		30		-1		360		720		 2		6
312		43		41		-1		215		335		 2		6
313		48		18		-1		129		249		 2		6
314		12		6		-1		360		720		 2		6
315		45		5		-1		303		543		 2		6
316		25		14		-1		511		631		 2		6
317		9		24		-1		204		324		 2		6
318		2		45		-1		342		582		 2		6
319		23		37		-1		0		360		 2		6
320		48		16		-1		360		720		 2		6
321		46		37		-1		449		689		 2		6
322		33		18		-1		204		324		 2		6
323		2		6		-1		48		168		 2		6
324		24		27		-1		155		395		 2		6
325		33		24		-1		403		643		 2		6
326		20		29		-1		360		720		 2		6
327		16		13		-1		13		133		 2		6
328		21		22		-1		11		131		 2		6
329		13		21		-1		363		483		 2		6
330		38		8		-1		153		393		 2		6
331		20		49		-1		482		602		 2		6
332		14		24		-1		360		720		 2		6
333		19		27		-1		360		720		 2		6
334		15		34		-1		489		609		 2		6
335		7		24		-1		440		560		 2		6
336		6		47		-1		90		330		 2		6
337		11		27		-1		393		513		 2		6
338		20		35		-1		0		360		 2		6
339		3		25		-1		62		302		 2		6
340		1		35		-1		140		260		 2		6
341		2		21		-1		282		522		 2		6
342		42		48		-1		360		720		 2		6
343		27		1		-1		346		586		 2		6
344		38		32		-1		373		493		 2		6
345		48		46		-1		207		447		 2		6
346		43		34		-1		53		293		 2		6
347		45		22		-1		329		569		 2		6
348		44		24		-1		433		553		 2		6
349		1		6		-1		588		708		 2		6
350		29		25		-1		0		360		 2		6
351		42		12		-1		0		360		 2		6
352		36		11		-1		0		360		 2		6
353		36		44		-1		42		162		 2		6
354		4		50		-1		360		720		 2		6
355		8		11		-1		360		720		 2		6
356		15		2		-1		0		360		 2		6
357		11		32		-1		0		360		 2		6
358		23		10		-1		545		665		 2		6
359		27		1		-1		360		720		 2		6
360		17		46		-1		207		327		 2		6
361		37		38		-1		360		720		 2		6
362		20		27		-1		522		642		 2		6
363		31		20		-1		474		594		 2		6
364		12		12		-1		0		360		 2		6
365		6		16		-1		0		360		 2		6
366		6		47		-1		37		157		 2		6
367		20		33		-1		0		360		 2		6
368		29		48		-1		576		696		 2		6
369		9		13		-1		360		720		 2		6
370		29		34		-1		0		360		 2		6
371		49		46		-1		75		315		 2		6
372		9		37		-1		49		289		 2		6
373		36		12		-1		0		360		 2		6
374		41		3		-1		0		360		 2		6
375		48		4		-1		464		584		 2		6
376		37		47		-1		360		720		 2		6
377		9		5		-1		103		223		 2		6
378		31		31		-1		360		720		 2		6
379		22		34		-1		449		569		 2		6
380		27		1		-1		139		379		 2		6
381		14		48		-1		207		327		 2		6
382		13		37		-1		532		652		 2		6
383		47		21		-1		315		555		 2		6
384		24		28		-1		576		696		 2		6
385		8		1		-1		360		720		 2		6
386		30		20		-1		84		324		 2		6
387		45		23		-1		456		696		 2		6
388		43		49		-1		360		720		 2		6
389		9		17		-1		360		720		 2		6
390		28		11		-1		232		352		 2		6
391		9		15		-1		360		720		 2		6
392		1		5		-1		360		720		 2		6
393		42		12		-1		442		562		 2		6
394		28		11		-1		461		581		 2		6
395		35		2		-1		360		720		 2		6
396		6		47		-1		360		720		 2		6
397		31		33		-1		183		303		 2		6
398		24		21		-1		0		360		 2		6
399		20		39		-1		153		273		 2		6
400		17		1		-1		360		720		 2		6
401		29		37		5		168		648		 1		4
402		44		36		4		0		720		 1		4
403		18		12		5		0		720		 1		4
404		42		7		5		240		720		 1		4
405		18		40		4		0		720		 1		4
406		17		34		5		0		720		 1		4
407		28		37		5		19		499		 1		4
408		25		13		5		3		483		 1		4
409		23		23		5		104		584		 1		4
410		30		10		4		0		720		 1		4
411		21		45		5		235		715		 1		4
412		38		9		5		50		530		 1		4
413		35		12		3		0		720		 1		4
414		41		44		5		23		503		 1		4
415		36		32		4		0		720		 1		4
416		19		7		5		145		625		 1		4
417		12		11		5		223		703		 1		4
418		21		22		5		46		526		 1		4
419		26		26		5		56		536		 1		4
420		36		16		3		0		720		 1		4
421		27		12		5		69		549		 1		4
422		14		21		5		137		617		 1		4
423		21		42		5		0		720		 1		4
424		13		44		5		62		542		 1		4
425		30		33		5		133		613		 1		4
426		29		16		4		0		720		 1		4
427		43		29		5		51		531		 1		4
428		16		40		5		0		720		 1		4
429		23		20		4		0		720		 1		4
430		38		21		4		0		720		 1		4
431		24		23		5		33		513		 1		4
432		43		32		5		5		485		 1		4
433		20		35		3		0		720		 1		4
434		5		6		5		207		687		 1		4
435		37		6		5		0		720		 1		4
436		11		7		5		146		626		 1		4
437		42		19		5		0		720		 1		4
438		13		36		5		47		527		 1		4
439		14		28		5		0		720		 1		4
440		21		8		5		99		579		 1		4
441		35		24		5		173		653		 1		4
442		10		37		5		224		704		 1		4
443		12		38		5		0		720		 1		4
444		37		20		5		0		720		 1		4
445		43		36		3		0		720		 1		4
446		17		16		4		0		720		 1		4
447		20		8		5		103		583		 1		4
448		9		35		3		0		720		 1		4
449		38		34		3		0		720		 1		4
450		23		24		4		0		720		 1		4
451		10		43		3		0		720		 1		4
452		32		36		4		0		720		 1		4
453		20		7		5		26		506		 1		4
454		24		35		3		0		720		 1		4
455		17		43		5		137		617		 1		4
456		5		22		4		0		720		 1		4
457		26		35		5		62		542		 1		4
458		17		43		5		232		712		 1		4
459		20		35		5		0		720		 1		4
460		41		18		5		60		540		 1		4
461		5		44		5		21		501		 1		4
462		21		25		5		176		656		 1		4
463		35		9		3		0		720		 1		4
464		31		7		5		55		535		 1		4
465		10		37		5		73		553		 1		4
466		19		19		5		40		520		 1		4
467		25		21		5		168		648		 1		4
468		22		17		5		145		625		 1		4
469		15		17		5		0		720		 1		4
470		28		36		5		124		604		 1		4
471		26		12		5		0		720		 1		4
472		30		35		4		0		720		 1		4
473		8		39		4		0		720		 1		4
474		22		28		5		0		720		 1		4
475		41		24		5		0		720		 1		4
476		44		42		5		0		720		 1		4
477		30		42		5		18		498		 1		4
478		32		21		3		0		720		 1		4
479		40		36		5		174		654		 1		4
480		36		41		5		207		687		 1		4
OPTION  LOCATION  CUSTOMER  PRIO  SERVICETIME   COST
0		454		0		0		2		0
1		455		1		0		2		0
2		471		2		0		2		0
3		443		3		0		2		0
4		473		4		0		2		0
5		448		5		0		2		0
6		445		6		0		2		0
7		439		7		0		2		0
8		464		8		0		2		0
9		407		9		0		2		0
10		419		10		0		2		0
11		419		11		0		2		0
12		462		12		0		2		0
13		421		13		0		2		0
14		464		14		0		2		0
15		426		15		0		2		0
16		408		16		0		2		0
17		448		17		0		2		0
18		479		18		0		2		0
19		456		19		0		2		0
20		442		20		0		2		0
21		455		21		0		2		0
22		430		22		0		2		0
23		406		23		0		2		0
24		401		24		0		2		0
25		417		25		0		2		0
26		448		26		0		2		0
27		471		27		0		2		0
28		459		28		0		2		0
29		410		29		0		2		0
30		433		30		0		2		0
31		434		31		0		2		0
32		424		32		0		2		0
33		450		33		0		2		0
34		436		34		0		2		0
35		431		35		0		2		0
36		413		36		0		2		0
37		430		37		0		2		0
38		449		38		0		2		0
39		461		39		0		2		0
40		447		40		0		2		0
41		465		41		0		2		0
42		443		42		0		2		0
43		478		43		0		2		0
44		461		44		0		2		0
45		415		45		0		2		0
46		433		46		0		2		0
47		454		47		0		2		0
48		432		48		0		2		0
49		442		49		0		2		0
50		416		50		0		2		0
51		402		51		0		2		0
52		414		52		0		2		0
53		405		53		0		2		0
54		437		54		0		2		0
55		420		55		0		2		0
56		431		56		0		2		0
57		422		57		0		2		0
58		408		58		0		2		0
59		443		59		0		2		0
60		436		60		0		2		0
61		416		61		0		2		0
62		471		62		0		2		0
63		403		63		0		2		0
64		440		64		0		2		0
65		434		65		0		2		0
66		457		66		0		2		0
67		465		67		0		2		0
68		440		68		0		2		0
69		449		69		0		2		0
70		474		70		0		2		0
71		434		71		0		2		0
72		417		72		0		2		0
73		437		73		0		2		0
74		441		74		0		2		0
75		441		75		0		2		0
76		441		76		0		2		0
77		425		77		0		2		0
78		449		78		0		2		0
79		461		79		0		2		0
80		1		80		0		5		0
81		2		81		0		5		0
82		3		82		0		5		0
83		4		83		0		5		0
84		5		84		0		5		0
85		6		85		0		5		0
86		7		86		0		5		0
87		8		87		0		5		0
88		9		88		0		5		0
89		10		89		0		5		0
90		11		90		0		5		0
91		12		91		0		5		0
92		13		92		0		5		0
93		14		93		0		5		0
94		15		94		0		5		0
95		16		95		0		5		0
96		17		96		0		5		0
97		18		97		0		5		0
98		19		98		0		5		0
99		20		99		0		5		0
100		21		100		0		5		0
101		22		101		0		5		0
102		23		102		0		5		0
103		24		103		0		5		0
104		25		104		0		5		0
105		26		105		0		5		0
106		27		106		0		5		0
107		28		107		0		5		0
108		29		108		0		5		0
109		30		109		0		5		0
110		31		110		0		5		0
111		32		111		0		5		0
112		33		112		0		5		0
113		34		113		0		5		0
114		35		114		0		5		0
115		36		115		0		5		0
116		37		116		0		5		0
117		38		117		0		5		0
118		39		118		0		5		0
119		40		119		0		5		0
120		41		120		0		5		0
121		42		121		0		5		0
122		43		122		0		5		0
123		44		123		0		5		0
124		45		124		0		5		0
125		46		125		0		5		0
126		47		126		0		5		0
127		48		127		0		5		0
128		49		128		0		5		0
129		50		129		0		5		0
130		51		130		0		5		0
131		52		131		0		5		0
132		53		132		0		5		0
133		54		133		0		5		0
134		55		134		0		5		0
135		56		135		0		5		0
136		57		136		0		5		0
137		58		137		0		5		0
138		59		138		0		5		0
139		60		139		0		5		0
140		61		140		0		5		0
141		62		141		0		5		0
142		63		142		0		5		0
143		64		143		0		5		0
144		65		144		0		5		0
145		66		145		0		5		0
146		67		146		0		5		0
147		68		147		0		5		0
148		69		148		0		5		0
149		70		149		0		5		0
150		71		150		0		5		0
151		72		151		0		5		0
152		73		152		0		5		0
153		74		153		0		5		0
154		75		154		0		5		0
155		76		155		0		5		0
156		77		156		0		5		0
157		78		157		0		5		0
158		79		158		0		5		0
159		80		159		0		5		0
160		81		160		1		5		0
161		417		160		0		2		0
162		82		161		1		5		0
163		447		161		0		2		0
164		83		162		1		5		0
165		403		162		0		2		0
166		84		163		1		5		0
167		414		163		0		2		0
168		85		164		0		5		0
169		471		164		1		2		0
170		86		165		0		5		0
171		455		165		1		2		0
172		87		166		0		5		0
173		439		166		1		2		0
174		88		167		1		5		0
175		420		167		0		2		0
176		89		168		1		5		0
177		405		168		0		2		0
178		90		169		0		5		0
179		470		169		1		2		0
180		91		170		0		5		0
181		469		170		1		2		0
182		92		171		0		5		0
183		463		171		1		2		0
184		93		172		0		5		0
185		402		172		1		2		0
186		94		173		0		5		0
187		435		173		1		2		0
188		95		174		0		5		0
189		459		174		1		2		0
190		96		175		0		5		0
191		469		175		1		2		0
192		97		176		1		5		0
193		404		176		0		2		0
194		98		177		1		5		0
195		402		177		0		2		0
196		99		178		1		5		0
197		466		178		0		2		0
198		100		179		1		5		0
199		455		179		0		2		0
200		101		180		1		5		0
201		433		180		0		2		0
202		102		181		0		5		0
203		402		181		1		2		0
204		103		182		0		5		0
205		401		182		1		2		0
206		104		183		1		5		0
207		440		183		0		2		0
208		105		184		0		5		0
209		443		184		1		2		0
210		106		185		0		5		0
211		470		185		1		2		0
212		107		186		1		5		0
213		406		186		0		2		0
214		108		187		1		5		0
215		404		187		0		2		0
216		109		188		0		5		0
217		465		188		1		2		0
218		110		189		0		5		0
219		454		189		1		2		0
220		111		190		0		5		0
221		402		190		1		2		0
222		112		191		0		5		0
223		411		191		1		2		0
224		113		192		0		5		0
225		436		192		1		2		0
226		114		193		0		5		0
227		422		193		1		2		0
228		115		194		0		5		0
229		454		194		1		2		0
230		116		195		0		5		0
231		412		195		1		2		0
232		117		196		0		5		0
233		452		196		1		2		0
234		118		197		1		5		0
235		435		197		0		2		0
236		119		198		1		5		0
237		414		198		0		2		0
238		120		199		0		5		0
239		439		199		1		2		0
240		121		200		1		5		0
241		470		200		0		2		0
242		122		201		1		5		0
243		401		201		0		2		0
244		123		202		1		5		0
245		466		202		0		2		0
246		124		203		1		5		0
247		466		203		0		2		0
248		125		204		1		5		0
249		450		204		0		2		0
250		126		205		0		5		0
251		443		205		1		2		0
252		127		206		0		5		0
253		427		206		1		2		0
254		128		207		0		5		0
255		469		207		1		2		0
256		129		208		0		5		0
257		470		208		1		2		0
258		130		209		1		5		0
259		426		209		0		2		0
260		131		210		1		5		0
261		410		210		0		2		0
262		132		211		1		5		0
263		420		211		0		2		0
264		133		212		0		5		0
265		422		212		1		2		0
266		134		213		1		5		0
267		463		213		0		2		0
268		135		214		0		5		0
269		420		214		1		2		0
270		136		215		1		5		0
271		429		215		0		2		0
272		137		216		1		5		0
273		415		216		0		2		0
274		138		217		0		5		0
275		446		217		1		2		0
276		139		218		1		5		0
277		433		218		0		2		0
278		140		219		1		5		0
279		416		219		0		2		0
280		141		220		0		5		0
281		404		220		1		2		0
282		142		221		0		5		0
283		469		221		1		2		0
284		143		222		0		5		0
285		406		222		1		2		0
286		144		223		1		5		0
287		469		223		0		2		0
288		145		224		0		5		0
289		416		224		1		2		0
290		146		225		1		5		0
291		425		225		0		2		0
292		147		226		1		5		0
293		421		226		0		2		0
294		148		227		1		5		0
295		401		227		0		2		0
296		149		228		1		5		0
297		412		228		0		2		0
298		150		229		1		5		0
299		480		229		0		2		0
300		151		230		1		5		0
301		436		230		0		2		0
302		152		231		0		5		0
303		416		231		1		2		0
304		153		232		0		5		0
305		420		232		1		2		0
306		154		233		1		5		0
307		476		233		0		2		0
308		155		234		0		5		0
309		447		234		1		2		0
310		156		235		1		5		0
311		411		235		0		2		0
312		157		236		0		5		0
313		456		236		1		2		0
314		158		237		1		5		0
315		432		237		0		2		0
316		159		238		0		5		0
317		420		238		1		2		0
318		160		239		0		5		0
319		442		239		1		2		0
320		161		240		1		5		0
321		406		240		0		2		0
322		474		240		2		2		0
323		162		241		1		5		0
324		471		241		2		2		0
325		463		241		0		2		0
326		163		242		1		5		0
327		477		242		0		2		0
328		407		242		2		2		0
329		164		243		1		5		0
330		403		243		2		2		0
331		457		243		0		2		0
332		165		244		0		5		0
333		455		244		1		2		0
334		418		244		2		2		0
335		166		245		0		5		0
336		475		245		1		2		0
337		460		245		2		2		0
338		167		246		1		5		0
339		420		246		2		2		0
340		410		246		0		2		0
341		168		247		1		5		0
342		454		247		2		2		0
343		457		247		0		2		0
344		169		248		2		5		0
345		461		248		1		2		0
346		430		248		0		2		0
347		170		249		0		5		0
348		467		249		2		2		0
349		429		249		1		2		0
350		171		250		0		5		0
351		458		250		1		2		0
352		423		250		2		2		0
353		172		251		2		5		0
354		478		251		0		2		0
355		445		251		1		2		0
356		173		252		1		5		0
357		461		252		2		2		0
358		451		252		0		2		0
359		174		253		2		5		0
360		446		253		0		2		0
361		405		253		1		2		0
362		175		254		2		5		0
363		475		254		1		2		0
364		430		254		0		2		0
365		176		255		1		5		0
366		454		255		0		2		0
367		436		255		2		2		0
368		177		256		0		5		0
369		416		256		1		2		0
370		413		256		2		2		0
371		178		257		0		5		0
372		456		257		1		2		0
373		426		257		2		2		0
374		179		258		1		5		0
375		412		258		2		2		0
376		432		258		0		2		0
377		180		259		1		5		0
378		403		259		2		2		0
379		416		259		0		2		0
380		181		260		0		5		0
381		433		260		2		2		0
382		421		260		1		2		0
383		182		261		1		5		0
384		404		261		0		2		0
385		473		261		2		2		0
386		183		262		1		5		0
387		473		262		2		2		0
388		424		262		0		2		0
389		184		263		1		5		0
390		438		263		2		2		0
391		477		263		0		2		0
392		185		264		0		5		0
393		416		264		1		2		0
394		413		264		2		2		0
395		186		265		0		5		0
396		401		265		1		2		0
397		407		265		2		2		0
398		187		266		0		5		0
399		453		266		1		2		0
400		427		266		2		2		0
401		188		267		0		5		0
402		476		267		1		2		0
403		410		267		2		2		0
404		189		268		2		5		0
405		417		268		0		2		0
406		434		268		1		2		0
407		190		269		2		5		0
408		462		269		0		2		0
409		443		269		1		2		0
410		191		270		1		5		0
411		410		270		2		2		0
412		446		270		0		2		0
413		192		271		0		5		0
414		438		271		1		2		0
415		470		271		2		2		0
416		193		272		0		5		0
417		415		272		1		2		0
418		452		272		2		2		0
419		194		273		1		5		0
420		418		273		0		2		0
421		422		273		2		2		0
422		195		274		2		5		0
423		463		274		0		2		0
424		412		274		1		2		0
425		196		275		2		5		0
426		438		275		0		2		0
427		417		275		1		2		0
428		197		276		1		5		0
429		448		276		2		2		0
430		439		276		0		2		0
431		198		277		2		5		0
432		412		277		0		2		0
433		438		277		1		2		0
434		199		278		1		5		0
435		441		278		2		2		0
436		415		278		0		2		0
437		200		279		0		5		0
438		452		279		1		2		0
439		429		279		2		2		0
440		201		280		0		5		0
441		413		280		1		2		0
442		476		280		2		2		0
443		202		281		1		5		0
444		410		281		0		2		0
445		426		281		2		2		0
446		203		282		1		5		0
447		408		282		0		2		0
448		471		282		2		2		0
449		204		283		0		5		0
450		462		283		1		2		0
451		418		283		2		2		0
452		205		284		0		5		0
453		403		284		2		2		0
454		443		284		1		2		0
455		206		285		0		5		0
456		425		285		1		2		0
457		480		285		2		2		0
458		207		286		1		5		0
459		441		286		2		2		0
460		411		286		0		2		0
461		208		287		1		5		0
462		465		287		2		2		0
463		475		287		0		2		0
464		209		288		2		5		0
465		456		288		0		2		0
466		448		288		1		2		0
467		210		289		0		5		0
468		427		289		2		2		0
469		402		289		1		2		0
470		211		290		0		5		0
471		410		290		2		2		0
472		421		290		1		2		0
473		212		291		2		5		0
474		407		291		0		2		0
475		472		291		1		2		0
476		213		292		2		5		0
477		404		292		1		2		0
478		463		292		0		2		0
479		214		293		0		5		0
480		475		293		2		2		0
481		427		293		1		2		0
482		215		294		0		5		0
483		475		294		1		2		0
484		480		294		2		2		0
485		216		295		0		5		0
486		404		295		2		2		0
487		415		295		1		2		0
488		217		296		2		5		0
489		447		296		0		2		0
490		440		296		1		2		0
491		218		297		2		5		0
492		476		297		0		2		0
493		446		297		1		2		0
494		219		298		2		5		0
495		448		298		0		2		0
496		472		298		1		2		0
497		220		299		0		5		0
498		449		299		1		2		0
499		445		299		2		2		0
500		221		300		1		5		0
501		479		300		2		2		0
502		413		300		0		2		0
503		222		301		0		5		0
504		435		301		1		2		0
505		464		301		2		2		0
506		223		302		1		5		0
507		455		302		2		2		0
508		449		302		0		2		0
509		224		303		1		5		0
510		432		303		2		2		0
511		450		303		0		2		0
512		225		304		2		5		0
513		409		304		0		2		0
514		403		304		1		2		0
515		226		305		1		5		0
516		423		305		0		2		0
517		427		305		2		2		0
518		227		306		1		5		0
519		445		306		2		2		0
520		402		306		0		2		0
521		228		307		1		5		0
522		414		307		0		2		0
523		423		307		2		2		0
524		229		308		2		5		0
525		458		308		1		2		0
526		477		308		0		2		0
527		230		309		2		5		0
528		414		309		1		2		0
529		455		309		0		2		0
530		231		310		0		5		0
531		406		310		1		2		0
532		474		310		2		2		0
533		232		311		1		5		0
534		442		311		2		2		0
535		451		311		0		2		0
536		233		312		1		5		0
537		462		312		0		2		0
538		466		312		2		2		0
539		234		313		1		5		0
540		456		313		0		2		0
541		439		313		2		2		0
542		235		314		2		5		0
543		418		314		0		2		0
544		466		314		1		2		0
545		236		315		0		5		0
546		454		315		1		2		0
547		401		315		2		2		0
548		237		316		0		5		0
549		409		316		1		2		0
550		427		316		2		2		0
551		238		317		0		5		0
552		479		317		1		2		0
553		435		317		2		2		0
554		239		318		2		5		0
555		476		318		0		2		0
556		402		318		1		2		0
557		240		319		0		5		0
558		417		319		2		2		0
559		409		319		1		2		0
560		241		320		2		5		0
561		242		320		0		5		0
562		422		320		1		2		0
563		243		321		1		5		0
564		244		321		2		5		0
565		450		321		0		2		0
566		245		322		1		5		0
567		246		322		2		5		0
568		417		322		0		2		0
569		247		323		2		5		0
570		248		323		0		5		0
571		479		323		1		2		0
572		249		324		1		5		0
573		250		324		0		5		0
574		470		324		2		2		0
575		251		325		2		5		0
576		252		325		0		5		0
577		403		325		1		2		0
578		253		326		0		5		0
579		254		326		2		5		0
580		464		326		1		2		0
581		255		327		0		5		0
582		256		327		1		5		0
583		421		327		2		2		0
584		257		328		1		5		0
585		258		328		2		5		0
586		405		328		0		2		0
587		259		329		2		5		0
588		260		329		1		5		0
589		455		329		0		2		0
590		261		330		2		5		0
591		262		330		0		5		0
592		461		330		1		2		0
593		263		331		1		5		0
594		264		331		0		5		0
595		404		331		2		2		0
596		265		332		0		5		0
597		266		332		1		5		0
598		435		332		2		2		0
599		267		333		2		5		0
600		268		333		0		5		0
601		454		333		1		2		0
602		269		334		1		5		0
603		270		334		0		5		0
604		425		334		2		2		0
605		271		335		0		5		0
606		272		335		2		5		0
607		403		335		1		2		0
608		273		336		1		5		0
609		274		336		0		5		0
610		437		336		2		2		0
611		275		337		0		5		0
612		276		337		2		5		0
613		460		337		1		2		0
614		277		338		2		5		0
615		278		338		1		5		0
616		425		338		0		2		0
617		279		339		1		5		0
618		280		339		2		5		0
619		436		339		0		2		0
620		281		340		1		5		0
621		282		340		2		5		0
622		409		340		0		2		0
623		283		341		1		5		0
624		284		341		2		5		0
625		429		341		0		2		0
626		285		342		1		5		0
627		286		342		0		5		0
628		457		342		2		2		0
629		287		343		2		5		0
630		288		343		0		5		0
631		440		343		1		2		0
632		289		344		0		5		0
633		290		344		1		5		0
634		458		344		2		2		0
635		291		345		1		5		0
636		292		345		2		5		0
637		468		345		0		2		0
638		293		346		2		5		0
639		294		346		0		5		0
640		428		346		1		2		0
641		295		347		1		5		0
642		296		347		2		5		0
643		436		347		0		2		0
644		297		348		2		5		0
645		298		348		1		5		0
646		431		348		0		2		0
647		299		349		1		5		0
648		300		349		2		5		0
649		474		349		0		2		0
650		301		350		1		5		0
651		302		350		2		5		0
652		458		350		0		2		0
653		303		351		2		5		0
654		304		351		0		5		0
655		402		351		1		2		0
656		305		352		1		5		0
657		306		352		0		5		0
658		451		352		2		2		0
659		307		353		2		5		0
660		308		353		1		5		0
661		420		353		0		2		0
662		309		354		1		5		0
663		310		354		2		5		0
664		458		354		0		2		0
665		311		355		0		5		0
666		312		355		1		5		0
667		445		355		2		2		0
668		313		356		2		5		0
669		314		356		1		5		0
670		434		356		0		2		0
671		315		357		1		5		0
672		316		357		0		5		0
673		440		357		2		2		0
674		317		358		1		5		0
675		318		358		2		5		0
676		433		358		0		2		0
677		319		359		2		5		0
678		320		359		0		5		0
679		433		359		1		2		0
680		321		360		0		5		0
681		322		360		1		5		0
682		426		360		2		2		0
683		323		361		0		5		0
684		324		361		1		5		0
685		434		361		2		2		0
686		325		362		1		5		0
687		326		362		2		5		0
688		478		362		0		2		0
689		327		363		0		5		0
690		328		363		1		5		0
691		429		363		2		2		0
692		329		364		0		5		0
693		330		364		2		5		0
694		463		364		1		2		0
695		331		365		2		5		0
696		332		365		0		5		0
697		448		365		1		2		0
698		333		366		2		5		0
699		334		366		0		5		0
700		468		366		1		2		0
701		335		367		2		5		0
702		336		367		1		5		0
703		478		367		0		2		0
704		337		368		0		5		0
705		338		368		1		5		0
706		415		368		2		2		0
707		339		369		1		5		0
708		340		369		2		5		0
709		448		369		0		2		0
710		341		370		2		5		0
711		342		370		0		5		0
712		466		370		1		2		0
713		343		371		1		5		0
714		344		371		2		5		0
715		449		371		0		2		0
716		345		372		0		5		0
717		346		372		2		5		0
718		479		372		1		2		0
719		347		373		0		5		0
720		348		373		2		5		0
721		437		373		1		2		0
722		349		374		0		5		0
723		350		374		1		5		0
724		431		374		2		2		0
725		351		375		1		5		0
726		352		375		2		5		0
727		430		375		0		2		0
728		353		376		0		5		0
729		354		376		1		5		0
730		455		376		2		2		0
731		355		377		1		5		0
732		356		377		2		5		0
733		416		377		0		2		0
734		357		378		0		5		0
735		358		378		1		5		0
736		465		378		2		2		0
737		359		379		2		5		0
738		360		379		1		5		0
739		455		379		0		2		0
740		361		380		1		5		0
741		362		380		0		5		0
742		423		380		2		2		0
743		363		381		0		5		0
744		364		381		1		5		0
745		454		381		2		2		0
746		365		382		1		5		0
747		366		382		2		5		0
748		449		382		0		2		0
749		367		383		1		5		0
750		368		383		0		5		0
751		456		383		2		2		0
752		369		384		1		5		0
753		370		384		0		5		0
754		470		384		2		2		0
755		371		385		0		5		0
756		372		385		1		5		0
757		417		385		2		2		0
758		373		386		2		5		0
759		374		386		0		5		0
760		424		386		1		2		0
761		375		387		0		5		0
762		376		387		2		5		0
763		468		387		1		2		0
764		377		388		1		5		0
765		378		388		2		5		0
766		425		388		0		2		0
767		379		389		0		5		0
768		380		389		2		5		0
769		454		389		1		2		0
770		381		390		2		5		0
771		382		390		0		5		0
772		459		390		1		2		0
773		383		391		2		5		0
774		384		391		1		5		0
775		475		391		0		2		0
776		385		392		2		5		0
777		386		392		0		5		0
778		434		392		1		2		0
779		387		393		2		5		0
780		388		393		0		5		0
781		459		393		1		2		0
782		389		394		1		5		0
783		390		394		2		5		0
784		471		394		0		2		0
785		391		395		0		5		0
786		392		395		1		5		0
787		434		395		2		2		0
788		393		396		1		5		0
789		394		396		0		5		0
790		423		396		2		2		0
791		395		397		0		5		0
792		396		397		2		5		0
793		463		397		1		2		0
794		397		398		1		5		0
795		398		398		0		5		0
796		429		398		2		2		0
797		399		399		1		5		0
798		400		399		2		5		0
799		422		399		0		2		0
